benchmark/results/graph__15-1000-0.10-02_17/graph__15-1000-0.10-02_17_Quinton_Benders_primal_sub.lp
\ This file has been generated by DOcplex
\ ENCODING=ISO-8859-1
\Problem name: Quinton Benders_primal_sub

Maximize
 obj: tau
Subject To
 c1: tau <= 0.001025641026
 c2: y_a0_proc_0 + y_a0_proc_1 - tau = 0
 c3: y_a0_proc_0 <= 1
 c4: y_a0_proc_1 <= 0
 c5: tau <= 0.000811030008
 c6: y_a1_proc_0 + y_a1_proc_1 - tau = 0
 c7: y_a1_proc_0 <= 0
 c8: y_a1_proc_1 <= 1
 c9: tau <= 0.001686340641
 c10: y_a2_proc_0 + y_a2_proc_1 - tau = 0
 c11: y_a2_proc_0 <= 1
 c12: y_a2_proc_1 <= 0
 c13: tau <= 0.001068376068
 c14: y_a3_proc_0 - tau = 0
 c15: y_a3_proc_0 <= 1
 c16: tau <= 0.001213592233
 c17: y_a4_proc_0 + y_a4_proc_1 - tau = 0
 c18: y_a4_proc_0 <= 0
 c19: y_a4_proc_1 <= 1
 c20: tau <= 0.001497005988
 c21: y_a5_proc_0 + y_a5_proc_1 - tau = 0
 c22: y_a5_proc_0 <= 0
 c23: y_a5_proc_1 <= 1
 c24: tau <= 0.000946969697
 c25: y_a6_proc_1 - tau = 0
 c26: y_a6_proc_1 <= 1
 c27: tau <= 0.001388888889
 c28: y_a7_proc_0 + y_a7_proc_1 - tau = 0
 c29: y_a7_proc_0 <= 0
 c30: y_a7_proc_1 <= 1
 c31: tau <= 0.001077586207
 c32: y_a8_proc_0 - tau = 0
 c33: y_a8_proc_0 <= 1
 c34: tau <= 0.000831255195
 c35: y_a9_proc_0 - tau = 0
 c36: y_a9_proc_0 <= 1
 c37: tau <= 0.000783085356
 c38: y_a10_proc_1 - tau = 0
 c39: y_a10_proc_1 <= 1
 c40: tau <= 0.000878734622
 c41: y_a11_proc_0 - tau = 0
 c42: y_a11_proc_0 <= 1
 c43: tau <= 0.000904977376
 c44: y_a12_proc_1 - tau = 0
 c45: y_a12_proc_1 <= 1
 c46: tau <= 0.001335113485
 c47: y_a13_proc_0 - tau = 0
 c48: y_a13_proc_0 <= 1
 c49: tau <= 0.000959692898
 c50: y_a14_proc_0 - tau = 0
 c51: y_a14_proc_0 <= 1
 c52: u_a1 - u_a0 - 975 y_a0_proc_0 - 1103 y_a0_proc_1 >= 0
 c53: u_a0 - u_a2 - 593 y_a2_proc_0 - 1069 y_a2_proc_1 >= -1
 c54: u_a3 - u_a1 - 947 y_a1_proc_0 - 1233 y_a1_proc_1 >= 0
 c55: u_a0 - u_a4 - 1177 y_a4_proc_0 - 824 y_a4_proc_1 >= 0
 c56: u_a5 - u_a3 - 936 y_a3_proc_0 >= 0
 c57: u_a4 - u_a6 - 1056 y_a6_proc_1 >= -1
 c58: u_a6 - u_a7 - 1187 y_a7_proc_0 - 720 y_a7_proc_1 >= 0
 c59: u_a8 - u_a5 - 1028 y_a5_proc_0 - 668 y_a5_proc_1 >= 0
 c60: u_a9 - u_a3 - 936 y_a3_proc_0 >= 0
 c61: u_a4 - u_a10 - 1277 y_a10_proc_1 >= -1
 c62: u_a11 - u_a9 - 1203 y_a9_proc_0 >= 0
 c63: u_a7 - u_a12 - 1105 y_a12_proc_1 >= -1
 c64: u_a13 - u_a6 - 1056 y_a6_proc_1 >= 0
 c65: u_a9 - u_a14 - 1042 y_a14_proc_0 >= -1
 c66: u_a10 - u_a11 - 1138 y_a11_proc_0 >= -1
 c67: u_a4 - u_a9 - 1203 y_a9_proc_0 >= -1
 c68: u_a10 - u_a8 - 928 y_a8_proc_0 >= 0
 c69: u_a12 - u_a14 - 1042 y_a14_proc_0 >= 0
 c70: - 749 y_a13_proc_0 >= -1
 c71: - 593 y_a2_proc_0 - 1069 y_a2_proc_1 >= -1
 c72: u_a10 - u_a9 - 1203 y_a9_proc_0 >= 0
 c73: u_a12 - u_a13 - 749 y_a13_proc_0 >= 0
 c74: u_a14 - u_a11 - 1138 y_a11_proc_0 >= 0
 c75: u_a7 - u_a13 - 749 y_a13_proc_0 >= -1
 c76: u_a2 - u_a7 - 1187 y_a7_proc_0 - 720 y_a7_proc_1 >= 0
 c77: u_a1 - u_a0 - 975 y_a0_proc_0 >= -2554
 c78: u_a1 - u_a0 - 1103 y_a0_proc_1 >= -2554
 c79: u_a0 - u_a1 - 947 y_a1_proc_0 >= -1
 c80: u_a0 - u_a1 - 1233 y_a1_proc_1 >= -1
 c81: u_a2 - u_a0 - 975 y_a0_proc_0 >= 0
 c82: u_a2 - u_a0 - 1103 y_a0_proc_1 >= -2554
 c83: u_a0 - u_a2 - 593 y_a2_proc_0 >= -1
 c84: u_a0 - u_a2 - 1069 y_a2_proc_1 >= -2555
 c85: u_a3 - u_a0 - 975 y_a0_proc_0 >= 0
 c86: u_a0 - u_a3 - 936 y_a3_proc_0 >= -1
 c87: u_a4 - u_a0 - 975 y_a0_proc_0 >= -2554
 c88: u_a4 - u_a0 - 1103 y_a0_proc_1 >= -2554
 c89: u_a0 - u_a4 - 1177 y_a4_proc_0 >= -1
 c90: u_a0 - u_a4 - 824 y_a4_proc_1 >= -1
 c91: u_a5 - u_a0 - 975 y_a0_proc_0 >= -2554
 c92: u_a5 - u_a0 - 1103 y_a0_proc_1 >= -2554
 c93: u_a0 - u_a5 - 1028 y_a5_proc_0 >= -1
 c94: u_a0 - u_a5 - 668 y_a5_proc_1 >= -1
 c95: u_a6 - u_a0 - 1103 y_a0_proc_1 >= 0
 c96: u_a0 - u_a6 - 1056 y_a6_proc_1 >= -2555
 c97: u_a7 - u_a0 - 975 y_a0_proc_0 >= -2554
 c98: u_a7 - u_a0 - 1103 y_a0_proc_1 >= -2554
 c99: u_a0 - u_a7 - 1187 y_a7_proc_0 >= -1
 c100: u_a0 - u_a7 - 720 y_a7_proc_1 >= -1
 c101: u_a8 - u_a0 - 975 y_a0_proc_0 >= 0
 c102: u_a0 - u_a8 - 928 y_a8_proc_0 >= -1
 c103: u_a9 - u_a0 - 975 y_a0_proc_0 >= 0
 c104: u_a0 - u_a9 - 1203 y_a9_proc_0 >= -1
 c105: u_a10 - u_a0 - 1103 y_a0_proc_1 >= -2554
 c106: u_a0 - u_a10 - 1277 y_a10_proc_1 >= -1
 c107: u_a11 - u_a0 - 975 y_a0_proc_0 >= 0
 c108: u_a0 - u_a11 - 1138 y_a11_proc_0 >= -1
 c109: u_a12 - u_a0 - 1103 y_a0_proc_1 >= -2553
 c110: u_a0 - u_a12 - 1105 y_a12_proc_1 >= -2
 c111: u_a13 - u_a0 - 975 y_a0_proc_0 >= 0
 c112: u_a0 - u_a13 - 749 y_a13_proc_0 >= -1
 c113: u_a14 - u_a0 - 975 y_a0_proc_0 >= 1
 c114: u_a0 - u_a14 - 1042 y_a14_proc_0 >= -2
 c115: u_a2 - u_a1 - 947 y_a1_proc_0 >= 0
 c116: u_a2 - u_a1 - 1233 y_a1_proc_1 >= 0
 c117: u_a1 - u_a2 - 593 y_a2_proc_0 >= -2555
 c118: u_a1 - u_a2 - 1069 y_a2_proc_1 >= -2555
 c119: u_a3 - u_a1 - 947 y_a1_proc_0 >= -2554
 c120: u_a1 - u_a3 - 936 y_a3_proc_0 >= -1
 c121: u_a4 - u_a1 - 947 y_a1_proc_0 >= -2555
 c122: u_a4 - u_a1 - 1233 y_a1_proc_1 >= -1
 c123: u_a1 - u_a4 - 1177 y_a4_proc_0 >= -2554
 c124: u_a1 - u_a4 - 824 y_a4_proc_1 >= 0
 c125: u_a5 - u_a1 - 947 y_a1_proc_0 >= -2554
 c126: u_a5 - u_a1 - 1233 y_a1_proc_1 >= 0
 c127: u_a1 - u_a5 - 1028 y_a5_proc_0 >= -2555
 c128: u_a1 - u_a5 - 668 y_a5_proc_1 >= -1
 c129: u_a6 - u_a1 - 1233 y_a1_proc_1 >= 0
 c130: u_a1 - u_a6 - 1056 y_a6_proc_1 >= -1
 c131: u_a7 - u_a1 - 947 y_a1_proc_0 >= -2554
 c132: u_a7 - u_a1 - 1233 y_a1_proc_1 >= 0
 c133: u_a1 - u_a7 - 1187 y_a7_proc_0 >= -2555
 c134: u_a1 - u_a7 - 720 y_a7_proc_1 >= -1
 c135: u_a8 - u_a1 - 947 y_a1_proc_0 >= -2554
 c136: u_a1 - u_a8 - 928 y_a8_proc_0 >= -1
 c137: u_a9 - u_a1 - 947 y_a1_proc_0 >= -2554
 c138: u_a1 - u_a9 - 1203 y_a9_proc_0 >= -1
 c139: u_a10 - u_a1 - 1233 y_a1_proc_1 >= 0
 c140: u_a1 - u_a10 - 1277 y_a10_proc_1 >= -1
 c141: u_a11 - u_a1 - 947 y_a1_proc_0 >= 0
 c142: u_a1 - u_a11 - 1138 y_a11_proc_0 >= -2555
 c143: u_a12 - u_a1 - 1233 y_a1_proc_1 >= 1
 c144: u_a1 - u_a12 - 1105 y_a12_proc_1 >= -2
 c145: u_a13 - u_a1 - 947 y_a1_proc_0 >= 0
 c146: u_a1 - u_a13 - 749 y_a13_proc_0 >= -2555
 c147: u_a14 - u_a1 - 947 y_a1_proc_0 >= -2553
 c148: u_a1 - u_a14 - 1042 y_a14_proc_0 >= -2
 c149: u_a3 - u_a2 - 593 y_a2_proc_0 >= -1
 c150: u_a2 - u_a3 - 936 y_a3_proc_0 >= 0
 c151: u_a4 - u_a2 - 593 y_a2_proc_0 >= -2555
 c152: u_a4 - u_a2 - 1069 y_a2_proc_1 >= -2555
 c153: u_a2 - u_a4 - 1177 y_a4_proc_0 >= 0
 c154: u_a2 - u_a4 - 824 y_a4_proc_1 >= 0
 c155: u_a5 - u_a2 - 593 y_a2_proc_0 >= -2554
 c156: u_a5 - u_a2 - 1069 y_a2_proc_1 >= -2554
 c157: u_a2 - u_a5 - 1028 y_a5_proc_0 >= -1
 c158: u_a2 - u_a5 - 668 y_a5_proc_1 >= -1
 c159: u_a6 - u_a2 - 1069 y_a2_proc_1 >= -1
 c160: u_a2 - u_a6 - 1056 y_a6_proc_1 >= -2554
 c161: u_a7 - u_a2 - 593 y_a2_proc_0 >= -2555
 c162: u_a7 - u_a2 - 1069 y_a2_proc_1 >= -2555
 c163: u_a2 - u_a7 - 1187 y_a7_proc_0 >= 0
 c164: u_a2 - u_a7 - 720 y_a7_proc_1 >= 0
 c165: u_a8 - u_a2 - 593 y_a2_proc_0 >= 0
 c166: u_a2 - u_a8 - 928 y_a8_proc_0 >= -1
 c167: u_a9 - u_a2 - 593 y_a2_proc_0 >= -1
 c168: u_a2 - u_a9 - 1203 y_a9_proc_0 >= 0
 c169: u_a10 - u_a2 - 1069 y_a2_proc_1 >= -2554
 c170: u_a2 - u_a10 - 1277 y_a10_proc_1 >= -1
 c171: u_a11 - u_a2 - 593 y_a2_proc_0 >= 0
 c172: u_a2 - u_a11 - 1138 y_a11_proc_0 >= -1
 c173: u_a12 - u_a2 - 1069 y_a2_proc_1 >= 0
 c174: u_a2 - u_a12 - 1105 y_a12_proc_1 >= -2555
 c175: u_a13 - u_a2 - 593 y_a2_proc_0 >= 0
 c176: u_a2 - u_a13 - 749 y_a13_proc_0 >= -1
 c177: u_a14 - u_a2 - 593 y_a2_proc_0 >= 0
 c178: u_a2 - u_a14 - 1042 y_a14_proc_0 >= -1
 c179: u_a4 - u_a3 - 936 y_a3_proc_0 >= -2555
 c180: u_a3 - u_a4 - 1177 y_a4_proc_0 >= 0
 c181: u_a5 - u_a3 - 936 y_a3_proc_0 >= -2554
 c182: u_a3 - u_a5 - 1028 y_a5_proc_0 >= -1
 c183: u_a7 - u_a3 - 936 y_a3_proc_0 >= -1
 c184: u_a3 - u_a7 - 1187 y_a7_proc_0 >= -2554
 c185: u_a8 - u_a3 - 936 y_a3_proc_0 >= 0
 c186: u_a3 - u_a8 - 928 y_a8_proc_0 >= -1
 c187: u_a9 - u_a3 - 936 y_a3_proc_0 >= 0
 c188: u_a3 - u_a9 - 1203 y_a9_proc_0 >= -1
 c189: u_a11 - u_a3 - 936 y_a3_proc_0 >= 0
 c190: u_a3 - u_a11 - 1138 y_a11_proc_0 >= -1
 c191: u_a13 - u_a3 - 936 y_a3_proc_0 >= 0
 c192: u_a3 - u_a13 - 749 y_a13_proc_0 >= -1
 c193: u_a14 - u_a3 - 936 y_a3_proc_0 >= 0
 c194: u_a3 - u_a14 - 1042 y_a14_proc_0 >= -1
 c195: u_a5 - u_a4 - 1177 y_a4_proc_0 >= -2554
 c196: u_a5 - u_a4 - 824 y_a4_proc_1 >= 0
 c197: u_a4 - u_a5 - 1028 y_a5_proc_0 >= -2555
 c198: u_a4 - u_a5 - 668 y_a5_proc_1 >= -1
 c199: u_a6 - u_a4 - 824 y_a4_proc_1 >= 0
 c200: u_a4 - u_a6 - 1056 y_a6_proc_1 >= -1
 c201: u_a7 - u_a4 - 1177 y_a4_proc_0 >= -2554
 c202: u_a7 - u_a4 - 824 y_a4_proc_1 >= 0
 c203: u_a4 - u_a7 - 1187 y_a7_proc_0 >= -2555
 c204: u_a4 - u_a7 - 720 y_a7_proc_1 >= -1
 c205: u_a8 - u_a4 - 1177 y_a4_proc_0 >= -2554
 c206: u_a4 - u_a8 - 928 y_a8_proc_0 >= -1
 c207: u_a9 - u_a4 - 1177 y_a4_proc_0 >= -2554
 c208: u_a4 - u_a9 - 1203 y_a9_proc_0 >= -1
 c209: u_a10 - u_a4 - 824 y_a4_proc_1 >= 0
 c210: u_a4 - u_a10 - 1277 y_a10_proc_1 >= -1
 c211: u_a11 - u_a4 - 1177 y_a4_proc_0 >= 0
 c212: u_a4 - u_a11 - 1138 y_a11_proc_0 >= -2555
 c213: u_a12 - u_a4 - 824 y_a4_proc_1 >= 1
 c214: u_a4 - u_a12 - 1105 y_a12_proc_1 >= -2
 c215: u_a13 - u_a4 - 1177 y_a4_proc_0 >= -2554
 c216: u_a4 - u_a13 - 749 y_a13_proc_0 >= -1
 c217: u_a14 - u_a4 - 1177 y_a4_proc_0 >= -2553
 c218: u_a4 - u_a14 - 1042 y_a14_proc_0 >= -2
 c219: u_a6 - u_a5 - 668 y_a5_proc_1 >= 0
 c220: u_a5 - u_a6 - 1056 y_a6_proc_1 >= -1
 c221: u_a7 - u_a5 - 1028 y_a5_proc_0 >= -2555
 c222: u_a7 - u_a5 - 668 y_a5_proc_1 >= -1
 c223: u_a5 - u_a7 - 1187 y_a7_proc_0 >= -2554
 c224: u_a5 - u_a7 - 720 y_a7_proc_1 >= 0
 c225: u_a8 - u_a5 - 1028 y_a5_proc_0 >= -2554
 c226: u_a5 - u_a8 - 928 y_a8_proc_0 >= -1
 c227: u_a9 - u_a5 - 1028 y_a5_proc_0 >= -2554
 c228: u_a5 - u_a9 - 1203 y_a9_proc_0 >= -1
 c229: u_a10 - u_a5 - 668 y_a5_proc_1 >= 0
 c230: u_a5 - u_a10 - 1277 y_a10_proc_1 >= -1
 c231: u_a11 - u_a5 - 1028 y_a5_proc_0 >= -2554
 c232: u_a5 - u_a11 - 1138 y_a11_proc_0 >= -1
 c233: u_a12 - u_a5 - 668 y_a5_proc_1 >= 0
 c234: u_a5 - u_a12 - 1105 y_a12_proc_1 >= -1
 c235: u_a13 - u_a5 - 1028 y_a5_proc_0 >= 0
 c236: u_a5 - u_a13 - 749 y_a13_proc_0 >= -2555
 c237: u_a14 - u_a5 - 1028 y_a5_proc_0 >= -2554
 c238: u_a5 - u_a14 - 1042 y_a14_proc_0 >= -1
 c239: u_a7 - u_a6 - 1056 y_a6_proc_1 >= -1
 c240: u_a6 - u_a7 - 720 y_a7_proc_1 >= 0
 c241: u_a10 - u_a6 - 1056 y_a6_proc_1 >= 0
 c242: u_a6 - u_a10 - 1277 y_a10_proc_1 >= -1
 c243: u_a12 - u_a6 - 1056 y_a6_proc_1 >= 0
 c244: u_a6 - u_a12 - 1105 y_a12_proc_1 >= -1
 c245: u_a8 - u_a7 - 1187 y_a7_proc_0 >= -2554
 c246: u_a7 - u_a8 - 928 y_a8_proc_0 >= -1
 c247: u_a9 - u_a7 - 1187 y_a7_proc_0 >= -1
 c248: u_a7 - u_a9 - 1203 y_a9_proc_0 >= -2554
 c249: u_a10 - u_a7 - 720 y_a7_proc_1 >= 0
 c250: u_a7 - u_a10 - 1277 y_a10_proc_1 >= -1
 c251: u_a11 - u_a7 - 1187 y_a7_proc_0 >= -2554
 c252: u_a7 - u_a11 - 1138 y_a11_proc_0 >= -1
 c253: u_a12 - u_a7 - 720 y_a7_proc_1 >= 0
 c254: u_a7 - u_a12 - 1105 y_a12_proc_1 >= -1
 c255: u_a13 - u_a7 - 1187 y_a7_proc_0 >= -2554
 c256: u_a7 - u_a13 - 749 y_a13_proc_0 >= -1
 c257: u_a14 - u_a7 - 1187 y_a7_proc_0 >= -2554
 c258: u_a7 - u_a14 - 1042 y_a14_proc_0 >= -1
 c259: u_a9 - u_a8 - 928 y_a8_proc_0 >= -1
 c260: u_a8 - u_a9 - 1203 y_a9_proc_0 >= 0
 c261: u_a11 - u_a8 - 928 y_a8_proc_0 >= 0
 c262: u_a8 - u_a11 - 1138 y_a11_proc_0 >= -1
 c263: u_a13 - u_a8 - 928 y_a8_proc_0 >= 0
 c264: u_a8 - u_a13 - 749 y_a13_proc_0 >= -1
 c265: u_a14 - u_a8 - 928 y_a8_proc_0 >= 0
 c266: u_a8 - u_a14 - 1042 y_a14_proc_0 >= -1
 c267: u_a11 - u_a9 - 1203 y_a9_proc_0 >= 0
 c268: u_a9 - u_a11 - 1138 y_a11_proc_0 >= -1
 c269: u_a13 - u_a9 - 1203 y_a9_proc_0 >= 0
 c270: u_a9 - u_a13 - 749 y_a13_proc_0 >= -1
 c271: u_a14 - u_a9 - 1203 y_a9_proc_0 >= 0
 c272: u_a9 - u_a14 - 1042 y_a14_proc_0 >= -1
 c273: u_a12 - u_a10 - 1277 y_a10_proc_1 >= 0
 c274: u_a10 - u_a12 - 1105 y_a12_proc_1 >= -1
 c275: u_a13 - u_a11 - 1138 y_a11_proc_0 >= -1
 c276: u_a11 - u_a13 - 749 y_a13_proc_0 >= 0
 c277: u_a14 - u_a11 - 1138 y_a11_proc_0 >= 0
 c278: u_a11 - u_a14 - 1042 y_a14_proc_0 >= -1
 c279: u_a14 - u_a13 - 749 y_a13_proc_0 >= 0
 c280: u_a13 - u_a14 - 1042 y_a14_proc_0 >= -1

Bounds
End
